(declare-const in0 Int)

(assert (and (and (and (and (and (and (and (and (and (and (and (and (and (and (and (and (and (and (and (and (and (and (and (and (and (and (and (and (and (and (and (and (and (and (and (and (and (and (and (and (and (and (and (and (and (and (and (and (and (and (and (and (and (and (and (and (and (and (and (and (and (and (and (and (and (and (and (and (and (and (and (and (and (and (and (and (and (and (and (and (and (and (and (and (and (and (and (and (and (and (and (and (and (and (and (and (and (and (and (and (and (and (and (and (and (and (and (and (and (and (and (and (and (and (and (and (and (and (and (and (and (and (and (and (and (and (and (and (and (and (and (and (and (and (and (and (and (and (and (and (and (and (and (and (and (and (and (and (and (and (and (and (and (and (and (and (and (and (and (and (and (and (and (and (and (and (and (and (and (and (and (and (and (and (and (and (and (and (and (and (and (and (and (and (and (and (and (and (and (and (and (and (and (and (and (and (and (and (and  ( <  0 in0)  ( <  1 in0))  ( <  2 in0))  ( <  3 in0))  ( <  4 in0))  ( <  5 in0))  ( <  6 in0))  ( <  7 in0))  ( <  8 in0))  ( <  9 in0))  ( <  10 in0))  ( <  11 in0))  ( <  12 in0))  ( <  13 in0))  ( <  14 in0))  ( <  15 in0))  ( <  16 in0))  ( <  17 in0))  ( <  18 in0))  ( <  19 in0))  ( <  20 in0))  ( <  21 in0))  ( <  22 in0))  ( <  23 in0))  ( <  24 in0))  ( <  25 in0))  ( <  26 in0))  ( <  27 in0))  ( <  28 in0))  ( <  29 in0))  ( <  30 in0))  ( <  31 in0))  ( <  32 in0))  ( <  33 in0))  ( <  34 in0))  ( <  35 in0))  ( <  36 in0))  ( <  37 in0))  ( <  38 in0))  ( <  39 in0))  ( <  40 in0))  ( <  41 in0))  ( <  42 in0))  ( <  43 in0))  ( <  44 in0))  ( <  45 in0))  ( <  46 in0))  ( <  47 in0))  ( <  48 in0))  ( <  49 in0))  ( <  50 in0))  ( <  51 in0))  ( <  52 in0))  ( <  53 in0))  ( <  54 in0))  ( <  55 in0))  ( <  56 in0))  ( <  57 in0))  ( <  58 in0))  ( <  59 in0))  ( <  60 in0))  ( <  61 in0))  ( <  62 in0))  ( <  63 in0))  ( <  64 in0))  ( <  65 in0))  ( <  66 in0))  ( <  67 in0))  ( <  68 in0))  ( <  69 in0))  ( <  70 in0))  ( <  71 in0))  ( <  72 in0))  ( <  73 in0))  ( <  74 in0))  ( <  75 in0))  ( <  76 in0))  ( <  77 in0))  ( <  78 in0))  ( <  79 in0))  ( <  80 in0))  ( <  81 in0))  ( <  82 in0))  ( <  83 in0))  ( <  84 in0))  ( <  85 in0))  ( <  86 in0))  ( <  87 in0))  ( <  88 in0))  ( <  89 in0))  ( <  90 in0))  ( <  91 in0))  ( <  92 in0))  ( <  93 in0))  ( <  94 in0))  ( <  95 in0))  ( <  96 in0))  ( <  97 in0))  ( <  98 in0))  ( <  99 in0))  ( <  100 in0))  ( <  101 in0))  ( <  102 in0))  ( <  103 in0))  ( <  104 in0))  ( <  105 in0))  ( <  106 in0))  ( <  107 in0))  ( <  108 in0))  ( <  109 in0))  ( <  110 in0))  ( <  111 in0))  ( <  112 in0))  ( <  113 in0))  ( <  114 in0))  ( <  115 in0))  ( <  116 in0))  ( <  117 in0))  ( <  118 in0))  ( <  119 in0))  ( <  120 in0))  ( <  121 in0))  ( <  122 in0))  ( <  123 in0))  ( <  124 in0))  ( <  125 in0))  ( <  126 in0))  ( <  127 in0))  ( <  128 in0))  ( <  129 in0))  ( <  130 in0))  ( <  131 in0))  ( <  132 in0))  ( <  133 in0))  ( <  134 in0))  ( <  135 in0))  ( <  136 in0))  ( <  137 in0))  ( <  138 in0))  ( <  139 in0))  ( <  140 in0))  ( <  141 in0))  ( <  142 in0))  ( <  143 in0))  ( <  144 in0))  ( <  145 in0))  ( <  146 in0))  ( <  147 in0))  ( <  148 in0))  ( <  149 in0))  ( <  150 in0))  ( <  151 in0))  ( <  152 in0))  ( <  153 in0))  ( <  154 in0))  ( <  155 in0))  ( <  156 in0))  ( <  157 in0))  ( <  158 in0))  ( <  159 in0))  ( <  160 in0))  ( <  161 in0))  ( <  162 in0))  ( <  163 in0))  ( <  164 in0))  ( <  165 in0))  ( <  166 in0))  ( <  167 in0))  ( <  168 in0))  ( <  169 in0))  ( <  170 in0))  ( <  171 in0))  ( <  172 in0))  ( <  173 in0))  ( <  174 in0))  ( <  175 in0))  ( <  176 in0))  ( <  177 in0))  ( <  178 in0))  ( <  179 in0))  ( <  180 in0))  ( <  181 in0))  ( <  182 in0))  ( <  183 in0))  ( <  184 in0))  ( <  185 in0))  ( <  186 in0))  ( <  187 in0))  ( <  188 in0))  ( <  189 in0))  ( <  190 in0))  ( <  191 in0))  ( <  192 in0))  ( <  193 in0))  ( <  194 in0))  ( <  195 in0))  ( <  196 in0))  ( <  197 in0))  ( <  198 in0))  ( <  199 in0)))

(check-sat)
(get-model)